start = 1;
limit = 6;
n = 100;
m=[|-1,-1,-1,-1,12,1,-1,-1,-1,-1,0,16,-1,-1,18,13,12,-1,-1,4,8,10,19,7,-1,-1,-1,4,9,-1,5,16,-1,-1,-1,-1,13,-1,-1,15,8,-1,-1,-1,-1,12,3,-1,5,3,14,-1,-1,9,15,-1,4,-1,11,6,-1,5,-1,6,-1,-1,-1,17,-1,-1,3,2,-1,-1,-1,17,0,0,-1,-1,-1,-1,-1,-1,-1,17,-1,12,-1,8,-1,17,-1,17,-1,5,1,-1,2,6,
|1,-1,6,-1,-1,-1,18,-1,6,16,-1,-1,-1,3,19,-1,17,-1,9,20,-1,-1,-1,2,-1,-1,5,14,-1,-1,13,-1,-1,-1,17,9,-1,2,11,7,-1,0,-1,-1,3,-1,17,-1,12,-1,-1,-1,-1,14,-1,17,14,-1,6,13,11,0,15,-1,5,-1,-1,-1,2,19,-1,-1,-1,11,-1,8,13,-1,-1,17,10,-1,-1,2,-1,-1,5,-1,13,-1,-1,-1,-1,-1,-1,16,3,-1,13,6,
|-1,-1,-1,-1,-1,-1,-1,2,8,-1,-1,-1,6,-1,-1,-1,-1,-1,-1,-1,-1,0,18,14,-1,-1,-1,-1,8,-1,-1,-1,-1,-1,-1,4,5,-1,-1,-1,-1,10,-1,-1,-1,-1,-1,-1,0,-1,10,-1,0,0,-1,-1,-1,12,12,-1,7,12,-1,-1,-1,-1,5,13,14,-1,-1,-1,4,-1,13,12,-1,6,-1,-1,-1,-1,13,-1,-1,-1,6,11,-1,2,-1,6,-1,-1,-1,8,16,-1,-1,-1,
|2,-1,-1,-1,-1,20,7,-1,11,1,-1,12,-1,0,-1,-1,5,-1,-1,-1,-1,-1,-1,-1,17,-1,11,5,-1,-1,14,-1,-1,20,15,-1,-1,20,-1,6,4,-1,17,11,11,-1,0,10,-1,-1,-1,-1,7,-1,-1,4,6,-1,8,-1,-1,-1,-1,1,-1,-1,-1,3,-1,-1,1,11,14,-1,1,-1,17,-1,5,-1,-1,13,-1,10,0,20,-1,-1,-1,17,-1,-1,-1,-1,-1,3,13,-1,16,7,
|-1,-1,-1,-1,-1,-1,-1,-1,11,-1,1,-1,7,11,14,0,-1,-1,-1,-1,0,3,10,-1,17,-1,-1,-1,18,-1,8,3,12,19,4,-1,-1,-1,-1,11,-1,-1,1,6,-1,5,-1,-1,19,-1,-1,1,-1,-1,-1,-1,-1,9,-1,4,-1,-1,11,1,11,-1,-1,18,-1,-1,13,15,2,-1,7,16,-1,-1,19,-1,-1,-1,-1,17,20,-1,-1,7,-1,18,10,12,6,-1,-1,-1,-1,-1,-1,1,
|-1,16,14,6,-1,-1,8,-1,-1,18,2,2,-1,-1,17,-1,12,-1,16,1,-1,-1,17,8,17,-1,16,10,-1,-1,-1,6,-1,10,-1,0,12,-1,13,-1,2,16,-1,-1,5,16,9,-1,-1,-1,-1,-1,16,2,2,-1,4,-1,14,17,-1,-1,19,17,4,-1,-1,-1,15,-1,-1,-1,-1,-1,-1,-1,-1,-1,-1,12,12,-1,1,17,-1,-1,-1,-1,-1,-1,-1,-1,-1,18,9,-1,2,-1,-1,-1,
|-1,-1,-1,5,14,17,-1,-1,-1,-1,-1,-1,6,-1,-1,-1,-1,0,6,8,-1,-1,5,-1,-1,16,-1,-1,-1,-1,9,5,-1,-1,-1,3,12,-1,16,11,12,4,13,-1,-1,-1,9,-1,-1,-1,7,-1,-1,-1,19,-1,-1,-1,12,0,5,-1,-1,-1,-1,-1,9,-1,9,-1,19,-1,-1,-1,13,-1,-1,-1,-1,-1,14,-1,10,12,6,6,-1,15,-1,-1,-1,-1,-1,-1,-1,20,2,3,8,-1,
|18,16,15,3,11,-1,-1,-1,-1,-1,20,1,1,-1,-1,-1,20,11,12,-1,-1,-1,8,7,10,10,16,-1,-1,11,-1,-1,3,-1,7,-1,-1,-1,-1,19,3,-1,-1,10,7,-1,-1,8,10,-1,-1,1,-1,-1,11,-1,-1,15,10,-1,-1,-1,-1,6,-1,-1,11,4,-1,-1,-1,-1,0,11,-1,13,11,5,16,14,-1,8,-1,7,-1,13,-1,10,17,17,-1,18,20,-1,15,-1,-1,-1,2,-1,
|-1,8,-1,-1,3,-1,-1,-1,-1,1,-1,6,-1,-1,18,-1,-1,9,18,18,-1,0,12,17,9,-1,-1,3,-1,11,9,-1,13,4,6,8,-1,-1,11,12,-1,5,-1,13,10,10,-1,1,-1,-1,15,-1,14,-1,-1,-1,-1,-1,2,-1,-1,-1,3,-1,11,14,2,-1,10,-1,-1,-1,16,20,-1,-1,0,14,-1,1,-1,2,-1,-1,17,-1,9,4,-1,-1,4,7,14,16,-1,14,0,-1,5,15,
|-1,-1,13,-1,-1,8,-1,-1,6,-1,17,-1,-1,-1,19,10,-1,0,3,19,19,17,-1,17,16,-1,6,2,-1,0,6,-1,-1,18,-1,-1,13,-1,-1,8,-1,-1,-1,7,-1,-1,17,-1,-1,3,20,-1,-1,0,0,-1,-1,-1,7,9,11,11,17,19,0,-1,11,13,12,11,3,9,-1,13,-1,-1,-1,20,-1,17,-1,-1,-1,6,-1,-1,-1,-1,-1,-1,-1,-1,0,11,-1,6,-1,4,-1,-1,
|-1,11,-1,-1,2,5,-1,-1,-1,-1,-1,-1,-1,12,-1,13,8,16,-1,-1,-1,-1,20,19,15,15,12,4,-1,19,10,7,-1,-1,-1,2,-1,-1,2,-1,5,-1,16,9,-1,20,1,-1,-1,2,-1,-1,-1,-1,-1,-1,6,-1,18,-1,11,-1,6,-1,19,-1,-1,1,19,7,-1,-1,-1,-1,-1,-1,-1,18,-1,-1,-1,10,-1,-1,17,-1,7,-1,-1,1,5,17,-1,8,-1,-1,-1,3,-1,-1,
|-1,-1,-1,-1,-1,-1,1,-1,-1,-1,-1,-1,13,-1,13,19,19,3,0,-1,10,16,1,-1,9,-1,-1,-1,0,14,-1,-1,-1,-1,16,11,6,-1,-1,-1,-1,6,-1,8,-1,7,-1,-1,-1,-1,-1,12,7,18,16,-1,6,13,1,16,-1,12,12,0,-1,4,15,-1,9,13,12,2,14,-1,0,-1,1,8,-1,-1,5,12,-1,5,-1,19,19,-1,-1,-1,4,-1,15,-1,-1,9,8,-1,-1,3,
|13,13,6,-1,-1,-1,-1,-1,-1,1,10,15,-1,-1,-1,-1,1,0,18,3,7,14,12,-1,11,11,-1,-1,-1,11,-1,7,5,16,5,-1,-1,2,-1,-1,-1,19,17,-1,-1,-1,15,-1,-1,-1,1,-1,0,20,-1,-1,-1,3,-1,-1,-1,-1,5,-1,15,12,-1,-1,10,5,-1,-1,13,-1,2,4,-1,4,19,19,14,-1,-1,2,-1,-1,-1,17,17,-1,19,-1,4,1,-1,-1,9,5,-1,10,
|11,6,4,19,-1,-1,19,16,2,14,1,-1,-1,-1,15,-1,-1,-1,-1,2,-1,-1,14,-1,-1,-1,14,16,3,-1,12,-1,-1,-1,-1,2,-1,11,6,-1,-1,7,-1,-1,12,-1,-1,15,-1,-1,12,-1,14,4,10,-1,15,10,-1,11,12,13,-1,14,16,-1,-1,-1,-1,-1,7,19,20,-1,6,0,-1,-1,0,9,3,3,5,17,-1,5,-1,12,19,-1,15,-1,8,-1,17,-1,2,-1,19,2,
|-1,-1,14,16,-1,-1,-1,-1,18,12,-1,17,-1,7,-1,-1,18,15,-1,8,-1,6,-1,-1,-1,-1,-1,0,-1,-1,12,5,19,-1,-1,-1,16,-1,2,14,16,-1,-1,-1,0,-1,9,-1,2,-1,-1,3,-1,-1,17,-1,18,-1,16,-1,6,4,-1,-1,0,-1,5,10,-1,9,-1,14,-1,4,-1,2,5,-1,-1,-1,-1,18,-1,-1,-1,-1,-1,20,10,-1,5,19,-1,17,8,17,8,-1,-1,-1,
|-1,18,14,-1,-1,-1,-1,-1,17,-1,-1,5,12,0,15,-1,11,15,-1,-1,-1,-1,-1,-1,-1,-1,-1,-1,13,7,11,5,-1,-1,5,8,-1,-1,9,6,-1,19,-1,16,-1,15,-1,-1,12,-1,1,-1,-1,-1,20,6,-1,8,-1,2,19,12,-1,11,7,-1,-1,10,18,3,-1,14,14,-1,17,-1,12,10,-1,13,17,-1,9,-1,-1,6,5,-1,-1,0,-1,-1,-1,-1,-1,10,-1,19,-1,12,
|-1,-1,3,7,16,-1,0,-1,-1,1,6,-1,-1,8,-1,0,-1,19,6,4,-1,7,-1,15,-1,13,-1,11,6,8,1,-1,18,-1,-1,-1,-1,2,-1,8,-1,18,-1,-1,15,-1,-1,-1,-1,17,15,-1,14,2,17,-1,10,-1,-1,-1,12,-1,-1,17,-1,-1,-1,2,0,-1,-1,-1,-1,-1,-1,16,18,3,-1,-1,13,-1,-1,6,-1,5,-1,-1,15,18,-1,-1,-1,-1,-1,-1,-1,19,-1,9,
|-1,20,-1,10,7,-1,20,5,-1,8,13,-1,-1,-1,14,-1,-1,-1,-1,-1,11,4,15,-1,7,11,6,-1,-1,-1,-1,-1,-1,-1,-1,16,-1,-1,-1,-1,-1,17,15,10,-1,-1,-1,-1,-1,2,-1,20,-1,-1,-1,0,14,18,11,5,-1,-1,14,5,-1,17,-1,-1,-1,-1,17,-1,-1,7,0,-1,13,-1,-1,-1,14,-1,-1,-1,3,1,0,-1,12,14,-1,-1,-1,-1,-1,13,-1,15,4,-1,
|4,16,-1,15,-1,20,-1,2,20,-1,11,9,-1,-1,-1,-1,12,-1,-1,-1,2,-1,-1,19,8,-1,20,-1,-1,-1,0,6,6,4,-1,-1,3,-1,14,-1,12,7,12,17,2,9,11,-1,7,12,5,-1,8,-1,-1,-1,18,-1,-1,-1,12,-1,-1,-1,-1,2,19,3,13,-1,-1,-1,7,1,16,-1,-1,-1,17,-1,-1,4,11,0,-1,-1,-1,-1,7,-1,-1,-1,0,-1,9,0,-1,-1,-1,-1,
|20,-1,11,-1,1,-1,-1,-1,13,-1,-1,6,7,-1,1,-1,20,8,10,-1,-1,3,-1,16,7,-1,-1,-1,11,-1,-1,6,-1,16,7,-1,-1,0,0,4,-1,19,10,-1,-1,15,8,13,-1,-1,-1,-1,12,-1,4,12,6,4,-1,5,2,5,-1,2,-1,6,-1,4,19,8,15,-1,-1,11,15,-1,-1,-1,19,19,1,-1,-1,10,15,-1,-1,-1,14,12,15,15,-1,8,20,12,-1,-1,-1,-1,
|8,8,-1,2,-1,-1,-1,-1,-1,-1,-1,-1,11,-1,-1,-1,16,-1,-1,-1,-1,3,6,-1,-1,4,-1,-1,-1,19,19,6,-1,-1,8,6,-1,-1,6,17,-1,10,-1,6,12,-1,-1,1,13,-1,11,-1,-1,-1,13,1,-1,13,-1,-1,17,-1,18,19,19,-1,-1,6,7,-1,12,-1,20,4,10,-1,-1,2,5,-1,-1,-1,10,-1,17,11,0,-1,-1,17,-1,19,-1,0,17,16,-1,-1,4,0,
|0,-1,-1,13,1,1,4,16,-1,-1,-1,14,-1,-1,-1,-1,-1,6,-1,13,19,-1,1,16,-1,5,20,-1,10,9,-1,13,-1,-1,-1,-1,-1,-1,-1,18,-1,-1,-1,-1,-1,-1,-1,13,-1,-1,-1,-1,-1,-1,-1,-1,4,17,-1,-1,14,-1,-1,6,9,-1,-1,-1,11,2,-1,19,-1,-1,-1,8,-1,-1,-1,5,-1,-1,0,20,-1,-1,-1,20,11,7,8,15,-1,7,7,-1,20,-1,-1,-1,
|17,20,6,-1,14,-1,1,-1,-1,2,-1,-1,-1,-1,-1,-1,-1,-1,-1,-1,0,-1,-1,-1,-1,-1,6,-1,16,7,1,-1,4,-1,-1,-1,-1,-1,16,-1,14,5,-1,6,16,-1,-1,-1,-1,-1,-1,1,-1,19,-1,2,-1,20,-1,-1,-1,2,-1,-1,-1,19,16,-1,-1,-1,-1,8,-1,1,-1,-1,12,-1,-1,-1,9,-1,-1,-1,-1,-1,-1,-1,-1,-1,-1,-1,5,13,-1,7,9,18,20,3,
|6,20,-1,15,-1,13,-1,-1,11,13,-1,-1,2,8,-1,-1,-1,9,18,9,-1,16,-1,-1,10,2,6,4,18,-1,6,-1,-1,2,5,-1,-1,-1,10,7,-1,4,-1,1,6,-1,16,-1,11,0,-1,-1,20,-1,-1,-1,0,-1,10,-1,-1,4,16,12,0,1,11,-1,-1,-1,9,-1,-1,-1,14,17,-1,17,15,-1,0,12,9,-1,0,-1,13,-1,-1,-1,-1,7,17,-1,4,18,-1,16,4,-1,
|10,-1,-1,-1,4,-1,10,13,18,-1,-1,-1,6,-1,-1,2,-1,-1,-1,12,-1,-1,-1,-1,-1,-1,-1,9,-1,-1,-1,-1,-1,0,-1,-1,-1,-1,10,-1,3,-1,-1,17,15,-1,4,6,-1,-1,-1,-1,-1,11,7,-1,-1,-1,-1,-1,-1,3,19,-1,19,-1,-1,1,2,19,17,-1,2,-1,15,19,-1,-1,19,-1,-1,17,-1,2,17,3,-1,-1,19,-1,-1,-1,-1,-1,-1,14,19,-1,16,-1,
|4,0,18,-1,-1,6,-1,9,-1,7,-1,20,6,-1,0,-1,-1,4,-1,-1,0,1,-1,-1,-1,-1,0,-1,-1,11,1,17,-1,-1,9,1,-1,-1,8,4,16,-1,11,10,-1,19,11,-1,4,-1,-1,-1,14,-1,-1,13,20,-1,-1,-1,-1,-1,-1,-1,0,0,-1,-1,-1,-1,-1,-1,-1,-1,10,5,-1,-1,8,5,-1,10,-1,-1,11,1,16,6,3,20,-1,11,-1,-1,-1,-1,9,-1,15,13,
|-1,7,-1,-1,-1,7,-1,7,-1,10,-1,-1,-1,-1,6,13,-1,5,16,10,-1,17,6,-1,-1,-1,-1,6,-1,6,-1,16,-1,2,-1,-1,-1,-1,-1,12,-1,3,-1,-1,-1,8,-1,-1,-1,-1,12,-1,-1,7,-1,-1,-1,6,0,4,-1,9,19,-1,-1,-1,5,-1,13,-1,-1,-1,-1,-1,15,20,9,5,4,-1,-1,-1,-1,-1,-1,0,-1,-1,16,-1,-1,-1,14,-1,20,-1,-1,-1,6,-1,
|-1,-1,-1,-1,-1,-1,7,7,-1,11,-1,17,20,12,-1,3,-1,-1,-1,-1,-1,-1,-1,19,-1,13,5,-1,-1,-1,12,5,-1,13,-1,14,-1,12,18,-1,-1,-1,-1,-1,10,10,20,8,-1,5,16,5,0,3,-1,-1,-1,-1,0,16,-1,-1,12,3,-1,8,-1,-1,15,9,18,-1,13,-1,-1,4,16,-1,-1,-1,-1,7,-1,11,7,-1,-1,14,-1,2,-1,-1,6,14,14,-1,4,0,-1,-1,
|-1,20,-1,11,2,10,7,-1,-1,-1,-1,-1,-1,-1,-1,5,14,-1,18,5,-1,-1,-1,-1,9,1,10,-1,-1,-1,-1,7,17,-1,-1,14,-1,-1,7,1,-1,-1,-1,6,-1,19,-1,-1,6,-1,8,-1,-1,-1,4,16,17,12,-1,-1,12,-1,-1,8,-1,16,5,7,19,19,-1,15,-1,6,-1,16,-1,6,1,6,-1,-1,13,2,9,19,-1,20,-1,-1,20,8,-1,7,-1,-1,-1,-1,3,13,
|-1,-1,2,8,-1,4,2,-1,-1,-1,-1,17,-1,-1,-1,-1,3,-1,18,-1,2,17,14,-1,-1,5,20,12,-1,-1,-1,16,-1,9,-1,0,-1,9,10,-1,9,-1,-1,-1,-1,3,20,-1,-1,-1,17,-1,-1,18,-1,18,9,-1,-1,-1,-1,0,17,1,16,9,-1,-1,9,-1,-1,-1,11,16,-1,6,12,-1,8,4,-1,0,-1,-1,-1,14,-1,-1,-1,8,14,-1,-1,-1,-1,-1,-1,-1,-1,-1,
|-1,-1,-1,-1,-1,-1,7,8,-1,-1,14,-1,-1,-1,-1,-1,19,-1,-1,-1,3,0,-1,2,-1,-1,2,-1,-1,-1,-1,14,0,11,-1,-1,-1,-1,6,-1,-1,17,-1,-1,16,9,17,14,3,-1,6,-1,-1,-1,-1,-1,14,-1,-1,-1,-1,9,9,-1,-1,9,2,-1,-1,-1,14,9,-1,18,-1,-1,1,-1,2,-1,-1,5,1,-1,14,8,-1,-1,-1,10,2,14,19,-1,-1,-1,-1,-1,1,-1,
|8,-1,6,8,19,10,12,-1,10,15,-1,-1,-1,20,-1,14,-1,-1,-1,17,-1,0,-1,-1,-1,-1,-1,-1,6,14,-1,-1,17,-1,13,-1,-1,-1,12,-1,16,1,-1,-1,2,7,-1,10,-1,20,11,17,-1,2,4,-1,14,-1,16,-1,8,-1,12,18,-1,-1,-1,-1,-1,-1,14,20,-1,-1,-1,8,-1,6,20,15,-1,-1,-1,-1,-1,7,-1,-1,-1,12,2,0,20,-1,-1,-1,20,-1,4,-1,
|3,20,16,-1,8,-1,-1,-1,18,-1,-1,-1,-1,-1,-1,-1,-1,-1,18,9,6,20,-1,4,11,3,-1,-1,15,16,20,6,-1,4,-1,13,-1,9,-1,8,-1,-1,2,10,7,10,-1,-1,-1,-1,13,14,-1,3,0,-1,19,19,-1,15,-1,-1,-1,-1,-1,13,-1,11,-1,-1,-1,-1,-1,16,6,17,-1,3,-1,-1,-1,-1,-1,-1,-1,-1,-1,8,16,-1,19,-1,-1,-1,18,-1,17,1,-1,-1,
|11,8,-1,-1,-1,11,16,14,-1,11,9,5,-1,5,-1,-1,0,12,-1,0,-1,-1,-1,-1,19,-1,15,-1,16,3,1,13,7,-1,18,-1,-1,-1,8,-1,-1,-1,-1,-1,-1,-1,8,0,3,5,12,-1,-1,0,-1,0,3,11,11,-1,-1,2,-1,-1,20,5,3,-1,-1,5,18,5,-1,-1,1,-1,-1,-1,-1,-1,5,9,-1,7,5,-1,-1,-1,15,-1,-1,3,-1,10,-1,-1,-1,8,5,17,
|19,-1,10,-1,19,-1,1,-1,-1,-1,16,17,13,-1,-1,-1,-1,-1,2,-1,14,-1,16,-1,-1,8,8,-1,-1,3,-1,4,-1,18,-1,-1,17,3,-1,4,14,-1,19,6,7,-1,8,7,3,-1,-1,18,-1,-1,-1,8,-1,-1,18,18,-1,-1,7,7,-1,5,14,0,-1,-1,3,-1,-1,-1,-1,-1,-1,7,12,12,-1,15,1,1,-1,9,18,-1,5,-1,-1,-1,13,3,-1,-1,-1,-1,18,18,
|20,-1,-1,15,-1,19,16,5,-1,-1,19,7,-1,16,-1,-1,13,19,-1,-1,-1,6,14,11,14,-1,-1,-1,17,-1,-1,-1,-1,-1,5,-1,5,-1,-1,1,8,13,3,9,19,4,-1,-1,0,1,-1,-1,5,-1,-1,-1,5,17,-1,17,3,16,20,13,10,-1,-1,-1,5,-1,-1,3,-1,20,-1,8,-1,16,-1,-1,-1,17,15,19,-1,-1,0,-1,14,-1,-1,14,-1,-1,-1,14,-1,-1,10,17,
|-1,-1,2,-1,6,-1,12,5,8,-1,14,-1,-1,-1,-1,9,6,-1,-1,2,14,16,-1,-1,4,0,-1,-1,-1,-1,-1,-1,-1,-1,13,20,-1,-1,-1,-1,1,13,-1,4,-1,9,-1,-1,-1,17,18,11,11,-1,-1,-1,-1,8,-1,9,1,-1,6,-1,-1,3,10,7,-1,-1,-1,14,15,6,3,19,17,-1,-1,9,17,-1,1,-1,-1,11,-1,4,-1,17,-1,-1,-1,2,-1,2,-1,-1,7,19,
|13,-1,6,-1,8,0,-1,-1,-1,7,17,-1,-1,-1,-1,-1,20,-1,-1,-1,14,-1,9,0,-1,20,-1,-1,20,16,-1,4,-1,16,-1,3,-1,-1,-1,-1,20,2,13,18,-1,-1,-1,-1,4,17,5,-1,-1,15,-1,12,-1,0,-1,-1,20,3,18,18,9,10,9,-1,-1,-1,20,2,-1,-1,-1,-1,10,-1,18,12,9,-1,-1,-1,-1,10,4,-1,13,-1,-1,-1,-1,-1,-1,18,-1,-1,-1,12,
|16,-1,9,10,-1,-1,-1,-1,-1,-1,-1,7,-1,18,5,-1,-1,-1,10,-1,-1,-1,-1,17,8,4,-1,11,-1,-1,15,-1,-1,20,-1,-1,14,-1,-1,-1,4,-1,-1,-1,17,-1,-1,-1,19,1,18,14,1,19,-1,3,-1,0,5,-1,6,-1,-1,-1,-1,-1,14,3,1,0,0,-1,8,-1,-1,0,6,-1,17,-1,-1,-1,-1,2,-1,8,1,-1,14,5,18,16,9,-1,12,7,-1,-1,-1,10,
|9,-1,-1,-1,16,-1,0,0,-1,-1,5,-1,0,19,-1,-1,-1,16,0,17,14,-1,10,11,0,2,-1,-1,17,-1,9,10,-1,16,14,12,-1,6,-1,-1,5,-1,-1,20,10,-1,-1,17,-1,-1,-1,5,-1,19,19,13,-1,-1,10,-1,16,0,20,20,-1,-1,-1,-1,-1,5,15,-1,17,8,11,-1,-1,-1,-1,5,2,-1,1,-1,-1,-1,2,13,20,-1,19,-1,0,-1,-1,-1,13,-1,-1,-1,
|-1,7,4,-1,16,16,-1,-1,2,-1,-1,-1,10,-1,-1,19,-1,-1,-1,0,3,-1,1,-1,-1,-1,7,-1,8,-1,14,-1,-1,1,6,7,-1,-1,16,-1,-1,-1,-1,-1,11,-1,14,-1,5,12,-1,-1,18,-1,-1,-1,-1,-1,16,0,-1,18,2,6,-1,-1,-1,15,-1,4,-1,-1,19,-1,13,6,0,16,8,-1,5,2,-1,-1,9,8,-1,15,-1,-1,17,-1,-1,9,16,-1,-1,11,-1,-1,
|-1,-1,3,20,-1,1,-1,-1,14,-1,4,-1,14,1,-1,-1,19,-1,-1,-1,-1,-1,-1,-1,-1,-1,-1,0,1,-1,-1,-1,9,-1,-1,-1,4,1,6,15,13,-1,-1,-1,-1,20,3,-1,-1,9,16,-1,-1,10,-1,10,-1,-1,-1,0,-1,10,-1,13,-1,-1,-1,4,16,0,7,3,8,14,-1,9,6,3,10,20,-1,-1,12,-1,-1,-1,-1,-1,2,8,-1,4,-1,18,-1,-1,-1,-1,18,17,
|-1,-1,-1,-1,13,6,12,-1,-1,7,11,-1,-1,-1,9,-1,-1,2,-1,15,-1,-1,4,3,-1,-1,-1,11,3,2,15,12,-1,3,-1,-1,12,-1,15,-1,-1,19,-1,-1,15,12,-1,-1,-1,-1,14,-1,-1,9,-1,5,-1,0,-1,-1,-1,-1,19,-1,1,13,15,-1,0,3,13,-1,-1,3,-1,17,-1,3,18,19,15,4,-1,-1,-1,-1,4,-1,-1,-1,10,-1,-1,10,4,-1,6,-1,5,1,
|0,1,2,-1,-1,-1,-1,5,18,13,8,19,-1,-1,15,-1,-1,-1,8,10,4,10,-1,14,-1,2,-1,13,-1,-1,8,-1,15,-1,10,-1,19,-1,-1,-1,-1,-1,5,-1,11,-1,8,-1,-1,-1,-1,15,11,-1,-1,14,-1,15,-1,10,1,2,6,-1,-1,-1,-1,-1,14,-1,-1,10,-1,-1,12,-1,4,-1,5,-1,19,2,-1,16,-1,16,-1,10,17,-1,5,19,7,11,-1,-1,-1,-1,-1,1,
|-1,-1,-1,17,-1,15,11,6,16,-1,16,-1,-1,-1,-1,20,-1,-1,-1,-1,-1,14,-1,-1,-1,-1,20,-1,0,3,-1,-1,-1,9,-1,3,-1,-1,-1,17,13,-1,11,-1,-1,-1,0,-1,-1,-1,16,-1,-1,10,8,17,13,-1,-1,-1,-1,19,-1,7,17,-1,18,-1,7,5,-1,8,3,-1,9,-1,-1,19,11,-1,20,-1,-1,6,-1,4,8,-1,10,10,-1,-1,17,14,14,-1,-1,-1,-1,0,
|-1,-1,-1,-1,-1,-1,-1,13,-1,10,-1,6,4,9,-1,15,-1,-1,-1,-1,19,17,-1,14,-1,-1,19,6,-1,-1,-1,-1,14,-1,4,14,-1,-1,-1,7,14,3,-1,-1,-1,-1,12,9,-1,10,20,-1,16,-1,-1,14,-1,-1,-1,6,15,-1,6,8,16,-1,-1,7,2,5,-1,-1,4,20,17,4,-1,-1,-1,6,7,-1,-1,20,6,-1,3,-1,-1,2,-1,13,-1,-1,8,-1,4,-1,1,12,
|-1,5,0,13,2,10,-1,0,-1,7,-1,-1,18,-1,-1,13,4,10,12,-1,9,-1,13,20,9,-1,-1,-1,10,-1,-1,3,-1,-1,6,13,-1,-1,-1,-1,1,11,2,-1,8,13,-1,8,19,5,0,15,-1,-1,-1,-1,-1,-1,-1,17,-1,14,-1,16,11,14,-1,-1,-1,-1,-1,0,2,11,-1,-1,-1,-1,-1,1,-1,-1,-1,-1,-1,-1,-1,-1,-1,-1,-1,-1,-1,-1,15,9,6,-1,-1,-1,
|17,-1,-1,-1,-1,-1,-1,11,-1,-1,8,14,9,-1,-1,-1,-1,-1,16,10,-1,-1,-1,5,6,-1,0,-1,4,-1,-1,-1,-1,7,4,19,14,-1,0,-1,9,1,11,-1,4,20,-1,-1,-1,0,-1,7,9,19,-1,12,-1,16,1,5,-1,7,-1,-1,-1,13,2,6,20,-1,-1,7,16,-1,-1,-1,-1,19,-1,-1,-1,3,-1,3,3,-1,-1,-1,17,-1,-1,-1,4,-1,-1,-1,19,-1,-1,1,
|18,6,9,2,11,-1,7,-1,-1,-1,10,-1,11,-1,-1,11,13,-1,8,-1,20,13,-1,-1,-1,-1,-1,11,-1,-1,-1,-1,12,-1,17,9,17,8,-1,9,-1,-1,12,-1,4,2,5,-1,-1,-1,18,10,6,-1,4,7,-1,18,9,-1,-1,11,-1,18,-1,-1,-1,10,4,2,-1,-1,-1,-1,-1,1,-1,-1,-1,18,-1,-1,-1,-1,1,3,6,-1,-1,-1,-1,12,-1,-1,11,4,0,6,9,16,
|-1,-1,-1,9,-1,-1,3,-1,1,3,14,3,8,-1,-1,18,9,8,-1,-1,-1,-1,17,-1,9,19,7,-1,-1,-1,-1,8,6,-1,-1,-1,2,-1,-1,13,7,-1,10,11,18,14,10,-1,-1,-1,6,-1,0,14,19,-1,-1,16,-1,-1,13,14,-1,-1,18,-1,-1,13,6,7,-1,-1,-1,-1,1,-1,-1,-1,-1,3,-1,-1,1,-1,4,-1,12,7,-1,19,-1,-1,9,-1,-1,-1,2,4,12,14,
|-1,18,-1,10,4,6,-1,5,5,-1,-1,10,0,-1,-1,-1,-1,-1,7,15,4,-1,-1,-1,5,-1,16,12,17,9,-1,14,14,-1,-1,14,18,7,-1,-1,-1,-1,-1,18,7,-1,8,13,-1,-1,-1,-1,-1,-1,-1,-1,-1,-1,-1,-1,-1,-1,-1,0,-1,-1,16,-1,-1,0,20,10,15,-1,-1,16,-1,5,-1,-1,4,-1,-1,-1,-1,-1,-1,-1,-1,-1,15,-1,8,12,0,-1,-1,-1,-1,9,
|-1,-1,2,-1,11,3,13,15,-1,2,0,-1,10,3,-1,19,-1,-1,13,-1,-1,-1,11,-1,-1,-1,-1,-1,12,-1,2,-1,-1,-1,-1,13,-1,-1,15,-1,1,-1,-1,4,-1,-1,16,9,-1,-1,20,-1,16,-1,-1,-1,-1,9,-1,12,16,6,-1,-1,19,-1,-1,5,-1,-1,-1,-1,-1,-1,-1,6,-1,-1,-1,11,10,-1,0,4,-1,-1,0,-1,9,-1,4,-1,-1,-1,-1,-1,-1,5,17,-1,
|-1,0,17,14,17,10,-1,5,-1,-1,-1,18,-1,1,-1,-1,20,-1,14,-1,12,0,-1,-1,-1,-1,-1,-1,-1,-1,2,-1,-1,-1,19,-1,10,-1,18,-1,-1,-1,-1,14,18,-1,15,20,20,6,-1,-1,-1,-1,13,-1,-1,-1,11,10,12,5,19,-1,-1,7,6,13,-1,-1,-1,-1,0,-1,18,1,-1,16,16,16,3,-1,8,-1,-1,5,-1,-1,-1,-1,-1,20,-1,-1,-1,-1,7,-1,3,-1,
|-1,17,-1,-1,3,9,-1,-1,15,9,14,-1,9,-1,19,-1,-1,-1,5,-1,-1,19,-1,-1,-1,13,11,-1,11,15,-1,-1,-1,12,2,4,-1,16,16,-1,13,-1,-1,-1,-1,-1,-1,-1,-1,0,-1,18,6,-1,4,-1,-1,-1,19,-1,9,-1,-1,11,9,11,-1,-1,18,1,-1,-1,10,-1,-1,-1,-1,13,-1,-1,-1,9,-1,-1,12,6,2,20,-1,-1,-1,-1,16,-1,8,-1,11,-1,-1,17,
|-1,2,2,17,-1,10,-1,-1,-1,-1,2,12,0,-1,16,-1,8,12,-1,10,3,-1,-1,-1,-1,-1,10,-1,-1,20,7,-1,-1,6,14,-1,-1,-1,-1,18,-1,16,3,12,8,-1,-1,-1,-1,-1,12,-1,-1,-1,-1,9,-1,14,18,13,-1,17,-1,-1,7,17,7,-1,-1,-1,-1,18,3,-1,12,-1,5,-1,10,-1,19,-1,14,-1,0,16,0,5,12,13,-1,20,14,-1,1,-1,12,10,-1,12,
|-1,12,3,4,-1,-1,10,9,7,3,-1,-1,9,-1,15,-1,-1,3,3,14,-1,15,-1,5,-1,-1,17,-1,-1,5,-1,3,17,13,-1,-1,1,-1,8,-1,-1,-1,0,17,-1,-1,-1,4,4,20,7,1,14,-1,-1,-1,13,13,7,19,17,-1,4,-1,-1,9,14,-1,-1,-1,-1,-1,6,2,-1,-1,-1,-1,19,-1,19,9,10,-1,2,10,-1,16,-1,-1,-1,11,17,-1,-1,-1,-1,-1,-1,3,
|-1,4,9,20,-1,18,-1,3,-1,-1,1,-1,14,6,-1,13,-1,-1,-1,-1,20,8,6,4,-1,-1,-1,-1,16,13,19,-1,-1,14,-1,13,-1,3,-1,9,5,-1,-1,-1,-1,17,12,-1,8,-1,7,7,-1,-1,8,-1,-1,-1,17,12,-1,11,0,-1,-1,-1,20,1,-1,18,-1,-1,-1,-1,-1,-1,-1,-1,-1,-1,-1,-1,-1,-1,-1,-1,17,14,-1,18,-1,16,-1,-1,-1,-1,-1,-1,-1,-1,
|-1,-1,-1,14,2,16,14,11,0,-1,-1,2,-1,7,6,4,-1,11,-1,13,-1,18,1,17,19,-1,3,18,14,-1,6,-1,20,-1,-1,10,10,11,-1,10,-1,11,-1,-1,-1,-1,-1,-1,-1,-1,-1,-1,9,-1,5,-1,3,-1,3,-1,5,14,19,-1,18,0,-1,-1,-1,0,8,-1,12,13,6,2,-1,-1,-1,20,-1,-1,0,-1,5,-1,6,4,2,-1,20,-1,-1,-1,7,-1,-1,18,18,-1,
|15,11,2,-1,-1,-1,-1,14,-1,-1,-1,-1,-1,16,-1,18,-1,-1,-1,0,4,-1,15,0,-1,9,9,9,-1,-1,12,18,-1,-1,-1,-1,14,-1,6,-1,13,-1,8,-1,0,6,8,-1,1,-1,-1,-1,2,16,-1,3,-1,-1,-1,4,11,-1,11,-1,-1,-1,-1,3,2,15,5,11,-1,16,13,15,7,18,-1,20,0,-1,20,4,-1,-1,-1,2,-1,19,10,-1,18,20,-1,-1,10,9,-1,-1,
|-1,6,16,19,-1,1,-1,-1,-1,5,20,-1,5,-1,19,12,3,10,-1,-1,-1,-1,10,3,-1,-1,6,4,10,-1,3,19,9,-1,-1,-1,19,2,16,-1,-1,-1,13,7,-1,4,7,3,16,18,-1,-1,7,17,4,-1,-1,-1,14,-1,-1,9,19,-1,-1,13,20,0,-1,-1,9,-1,20,-1,14,-1,-1,-1,-1,-1,7,10,16,-1,-1,-1,-1,-1,2,14,-1,-1,-1,0,-1,15,-1,-1,19,-1,
|-1,-1,-1,0,7,7,11,-1,-1,7,10,5,15,9,-1,-1,15,-1,-1,12,-1,-1,8,3,12,8,-1,7,17,9,19,9,-1,0,4,13,3,12,-1,-1,19,-1,3,-1,-1,-1,-1,-1,17,2,-1,10,-1,-1,13,3,-1,-1,11,16,-1,-1,-1,-1,15,14,6,1,-1,8,8,-1,-1,0,-1,-1,-1,12,-1,6,-1,-1,-1,10,19,-1,-1,12,-1,-1,1,-1,15,-1,-1,-1,-1,-1,-1,-1,
|5,-1,15,-1,1,-1,-1,3,1,2,-1,-1,-1,13,12,-1,-1,-1,-1,-1,-1,3,-1,-1,-1,-1,-1,-1,-1,-1,3,-1,12,-1,-1,9,9,-1,-1,-1,-1,-1,4,-1,1,-1,-1,-1,-1,-1,19,16,-1,-1,4,-1,5,1,-1,-1,3,-1,-1,-1,-1,-1,-1,-1,-1,-1,-1,-1,11,-1,-1,17,3,-1,-1,-1,-1,20,3,19,10,17,14,10,3,-1,12,12,-1,13,-1,-1,13,-1,-1,-1,
|18,13,-1,-1,0,-1,18,0,2,-1,9,20,4,18,-1,16,-1,-1,20,-1,-1,-1,15,19,12,-1,-1,1,8,-1,10,1,-1,13,-1,-1,-1,-1,-1,14,5,5,16,-1,0,-1,-1,-1,8,17,9,6,12,-1,-1,-1,-1,20,-1,15,15,-1,-1,-1,-1,16,-1,13,9,20,5,-1,9,-1,13,15,-1,12,-1,-1,17,5,-1,-1,16,8,-1,-1,-1,-1,-1,-1,-1,-1,-1,-1,-1,-1,-1,20,
|-1,-1,17,-1,-1,3,-1,13,8,-1,4,15,18,12,10,5,18,4,-1,-1,-1,1,13,-1,-1,-1,-1,-1,-1,-1,12,-1,-1,12,-1,-1,-1,-1,11,-1,13,-1,10,14,16,-1,-1,3,4,-1,-1,2,-1,18,-1,2,-1,-1,-1,-1,19,-1,4,-1,-1,-1,8,5,-1,14,-1,-1,-1,-1,-1,0,19,14,-1,7,-1,-1,10,-1,17,0,-1,-1,-1,19,-1,13,-1,-1,7,-1,7,-1,-1,-1,
|-1,4,7,0,10,5,14,-1,11,5,20,17,17,-1,-1,18,17,-1,-1,10,15,-1,-1,-1,13,16,2,4,-1,-1,17,-1,-1,-1,16,-1,16,-1,15,-1,-1,-1,-1,14,-1,3,6,17,7,-1,-1,-1,-1,0,-1,2,7,-1,18,-1,-1,16,8,-1,-1,-1,-1,-1,-1,-1,-1,3,11,-1,14,4,-1,-1,-1,7,-1,7,12,-1,-1,-1,0,-1,-1,-1,-1,-1,-1,-1,9,-1,-1,12,-1,-1,
|17,-1,1,11,9,-1,-1,5,3,-1,-1,-1,-1,18,-1,-1,1,-1,7,14,-1,-1,6,7,-1,-1,-1,6,17,5,-1,-1,5,19,8,18,-1,7,2,-1,-1,-1,-1,15,-1,20,17,-1,7,19,16,-1,-1,-1,-1,20,-1,20,10,-1,-1,-1,-1,-1,-1,-1,9,-1,1,19,-1,-1,-1,-1,1,-1,-1,8,7,19,-1,-1,17,5,17,8,-1,9,-1,20,4,18,18,-1,-1,9,-1,-1,2,9,
|-1,-1,-1,9,19,8,-1,8,-1,17,-1,-1,-1,-1,9,-1,-1,-1,-1,-1,-1,-1,-1,8,-1,-1,-1,-1,6,-1,14,-1,15,-1,-1,-1,-1,2,-1,-1,-1,4,6,2,-1,13,-1,-1,16,19,5,-1,19,0,-1,-1,-1,15,-1,10,-1,-1,4,9,-1,-1,-1,3,13,-1,0,19,13,18,5,-1,-1,-1,-1,15,4,-1,-1,12,-1,-1,-1,-1,-1,-1,20,-1,-1,18,8,-1,20,20,-1,-1,
|-1,-1,3,5,10,-1,-1,4,1,-1,15,-1,5,-1,-1,-1,-1,0,-1,3,-1,16,4,-1,-1,0,4,-1,1,-1,15,-1,-1,9,15,19,-1,10,-1,-1,5,16,-1,-1,-1,6,-1,-1,-1,-1,-1,-1,7,-1,13,5,9,-1,10,14,-1,-1,15,0,-1,-1,-1,-1,-1,-1,-1,-1,17,-1,-1,20,12,16,-1,16,19,3,-1,20,-1,-1,-1,-1,-1,-1,-1,7,1,-1,1,14,-1,-1,-1,-1,
|-1,2,7,11,-1,-1,-1,-1,-1,-1,-1,4,-1,-1,19,-1,-1,4,-1,-1,-1,2,-1,10,-1,7,-1,-1,-1,-1,-1,13,-1,2,8,-1,-1,-1,8,-1,-1,-1,12,8,0,18,13,-1,-1,-1,-1,-1,7,-1,-1,-1,-1,-1,-1,-1,-1,13,-1,-1,16,17,20,-1,-1,-1,-1,-1,19,19,4,0,4,-1,7,-1,-1,-1,17,-1,-1,-1,-1,-1,-1,17,-1,-1,-1,13,16,8,16,1,12,10,
|18,2,13,-1,-1,-1,9,12,-1,-1,-1,-1,9,6,-1,19,11,-1,-1,-1,6,-1,-1,17,-1,-1,-1,20,-1,-1,18,-1,-1,-1,20,-1,-1,-1,12,-1,-1,-1,5,11,-1,-1,6,2,-1,7,15,-1,-1,-1,-1,16,-1,-1,-1,8,-1,-1,2,5,20,-1,17,-1,1,-1,20,-1,-1,-1,-1,-1,-1,-1,-1,17,-1,18,-1,-1,17,-1,20,-1,12,-1,-1,-1,11,-1,13,-1,5,-1,-1,-1,
|-1,-1,-1,-1,-1,-1,20,-1,3,19,15,-1,-1,-1,0,-1,10,-1,-1,-1,15,-1,-1,5,-1,-1,-1,16,-1,-1,-1,-1,17,17,18,-1,19,17,17,-1,11,2,-1,8,-1,2,16,16,-1,3,-1,-1,-1,-1,15,-1,15,16,15,-1,6,-1,-1,-1,-1,-1,-1,-1,-1,-1,-1,3,-1,-1,-1,-1,2,-1,17,0,-1,-1,-1,-1,10,1,-1,-1,9,-1,17,17,17,-1,0,20,15,11,4,-1,
|-1,-1,18,-1,12,-1,1,7,8,-1,-1,0,5,8,6,5,-1,16,-1,-1,-1,-1,14,-1,15,16,-1,20,12,-1,20,-1,-1,-1,-1,15,-1,11,-1,-1,6,11,16,-1,-1,-1,2,-1,-1,-1,0,-1,-1,1,-1,-1,-1,14,13,3,-1,-1,-1,-1,-1,-1,-1,13,13,-1,-1,-1,9,-1,11,-1,-1,-1,-1,-1,-1,8,20,-1,-1,7,2,8,-1,-1,-1,2,13,-1,18,9,-1,8,-1,6,
|-1,-1,19,-1,-1,-1,-1,1,-1,6,2,-1,-1,15,10,-1,0,13,6,16,-1,19,-1,2,-1,-1,-1,-1,-1,-1,-1,1,-1,12,8,6,-1,-1,3,-1,11,3,8,-1,-1,11,10,5,16,17,-1,8,0,18,-1,-1,-1,-1,-1,-1,14,-1,8,-1,-1,17,16,11,-1,-1,-1,-1,-1,-1,1,-1,-1,-1,-1,-1,-1,0,-1,-1,-1,-1,4,3,-1,-1,16,-1,1,-1,-1,-1,-1,-1,-1,0,
|-1,4,17,19,-1,16,-1,13,-1,-1,-1,-1,18,11,1,2,-1,4,14,-1,-1,18,-1,-1,-1,-1,5,-1,-1,-1,3,14,12,18,-1,13,-1,2,-1,-1,11,17,-1,19,-1,9,6,-1,14,-1,-1,-1,-1,19,-1,11,7,5,17,11,-1,-1,-1,-1,-1,-1,-1,6,17,15,18,12,-1,-1,11,-1,-1,11,-1,13,10,9,-1,-1,-1,-1,-1,-1,2,1,2,-1,3,-1,5,-1,-1,-1,-1,-1,
|-1,-1,-1,-1,10,13,-1,0,9,-1,-1,-1,15,-1,4,-1,-1,-1,-1,11,18,-1,-1,-1,20,-1,-1,9,-1,11,-1,-1,11,-1,-1,-1,2,-1,3,2,15,-1,-1,-1,9,2,-1,-1,-1,-1,-1,-1,-1,-1,-1,5,6,16,-1,-1,-1,13,3,12,-1,18,-1,-1,12,-1,-1,-1,-1,-1,-1,14,-1,19,-1,3,16,19,-1,-1,-1,8,-1,-1,-1,-1,-1,-1,3,-1,-1,11,5,10,-1,-1,
|14,-1,-1,-1,-1,-1,9,-1,-1,-1,15,3,-1,5,19,20,-1,6,12,-1,-1,-1,17,16,8,18,-1,0,19,19,8,-1,14,-1,-1,6,-1,4,-1,17,-1,-1,17,-1,-1,3,-1,0,16,15,-1,-1,-1,11,-1,10,-1,-1,-1,-1,-1,-1,-1,-1,10,-1,-1,9,12,-1,9,3,19,6,14,-1,-1,-1,14,-1,9,-1,8,-1,14,-1,20,13,-1,18,-1,2,2,-1,19,-1,4,-1,20,-1,
|-1,20,-1,-1,1,3,-1,15,-1,-1,-1,-1,2,-1,18,-1,-1,6,1,-1,-1,-1,13,16,-1,-1,3,9,-1,11,-1,-1,-1,-1,20,1,-1,-1,-1,-1,14,13,-1,-1,-1,-1,2,17,2,-1,1,-1,4,-1,-1,-1,8,5,-1,1,4,11,13,-1,-1,-1,-1,7,-1,6,-1,-1,-1,-1,-1,17,-1,-1,-1,-1,-1,11,-1,19,-1,-1,13,-1,-1,-1,20,16,-1,8,15,-1,-1,11,-1,5,
|-1,12,9,-1,-1,-1,-1,-1,-1,-1,-1,-1,-1,-1,-1,-1,-1,-1,-1,-1,-1,12,14,-1,-1,-1,17,-1,-1,0,10,10,17,-1,8,19,20,-1,-1,-1,-1,-1,-1,1,9,-1,-1,4,7,10,-1,-1,-1,-1,12,13,-1,-1,4,17,-1,1,19,-1,-1,6,-1,-1,15,-1,-1,4,13,17,-1,12,2,-1,-1,-1,20,-1,12,9,20,-1,-1,4,15,1,-1,-1,-1,-1,-1,7,-1,-1,-1,-1,
|-1,-1,-1,10,-1,-1,-1,-1,0,18,-1,-1,10,-1,-1,-1,-1,12,12,13,-1,1,-1,18,7,11,-1,-1,0,-1,19,9,-1,20,-1,-1,17,-1,13,-1,10,7,7,9,-1,2,-1,-1,-1,-1,-1,-1,-1,16,1,-1,-1,-1,-1,-1,11,10,-1,-1,12,10,-1,15,-1,8,20,20,16,-1,-1,3,10,17,-1,-1,5,9,-1,19,0,3,4,20,2,6,5,5,-1,-1,-1,-1,9,-1,19,15,
|-1,11,-1,-1,-1,16,-1,4,-1,-1,-1,-1,-1,16,20,-1,19,17,-1,18,8,7,-1,15,3,-1,7,-1,-1,20,-1,19,-1,-1,-1,9,11,-1,-1,-1,-1,16,-1,15,19,-1,8,-1,-1,-1,-1,-1,-1,-1,-1,-1,11,-1,-1,-1,18,20,-1,3,20,17,-1,-1,-1,-1,10,17,10,5,4,-1,-1,13,-1,-1,17,-1,-1,18,-1,9,-1,19,19,-1,14,6,-1,-1,4,14,-1,-1,-1,1,
|19,-1,-1,14,-1,10,-1,7,-1,-1,2,-1,-1,-1,-1,2,-1,4,-1,-1,-1,-1,14,1,-1,10,-1,5,-1,10,4,2,-1,-1,-1,-1,-1,6,-1,13,12,-1,-1,-1,2,-1,13,-1,9,0,-1,-1,-1,7,-1,-1,15,-1,-1,-1,-1,8,1,6,0,1,12,11,-1,10,-1,6,17,9,9,5,11,-1,3,16,-1,4,-1,15,-1,-1,6,-1,-1,-1,20,-1,18,-1,-1,6,14,-1,-1,-1,
|-1,1,0,2,-1,-1,12,-1,-1,-1,-1,-1,7,16,-1,13,-1,-1,-1,15,-1,19,7,-1,-1,-1,-1,-1,-1,7,-1,13,7,-1,1,-1,-1,-1,19,13,7,-1,20,-1,1,-1,-1,-1,7,7,-1,-1,-1,15,7,-1,11,-1,10,-1,20,18,-1,-1,-1,-1,-1,2,-1,-1,17,13,7,16,5,-1,18,-1,-1,10,-1,-1,15,1,18,8,20,7,-1,-1,11,-1,4,18,-1,20,-1,-1,-1,-1,
|-1,8,-1,0,-1,-1,-1,-1,-1,6,12,1,-1,-1,15,-1,17,13,-1,-1,14,14,1,17,2,-1,-1,8,20,1,19,6,-1,15,19,-1,-1,-1,0,16,-1,7,6,11,13,-1,-1,-1,10,-1,8,7,15,-1,-1,4,-1,-1,6,-1,-1,19,14,-1,-1,15,-1,-1,-1,-1,17,7,10,-1,-1,-1,-1,13,-1,-1,11,-1,-1,-1,18,-1,-1,-1,-1,1,-1,-1,-1,-1,17,1,-1,-1,5,14,
|-1,-1,-1,4,-1,17,9,-1,-1,-1,20,-1,-1,12,-1,-1,20,-1,-1,-1,-1,4,2,-1,-1,2,-1,-1,-1,-1,-1,-1,-1,17,13,-1,-1,-1,13,-1,9,-1,-1,-1,9,-1,16,-1,16,-1,8,-1,-1,-1,17,20,-1,-1,5,-1,-1,-1,16,15,-1,-1,-1,-1,-1,14,-1,-1,2,-1,-1,0,-1,20,-1,-1,-1,-1,7,-1,-1,-1,-1,1,-1,-1,-1,6,3,4,10,13,5,-1,-1,-1,
|-1,-1,-1,2,-1,-1,-1,8,0,4,3,-1,-1,7,17,16,7,14,-1,1,-1,-1,11,-1,19,-1,9,0,-1,20,-1,-1,20,-1,15,-1,-1,18,-1,-1,9,-1,-1,-1,6,16,-1,-1,11,5,12,-1,5,-1,17,12,19,14,-1,15,8,19,-1,19,6,-1,6,17,-1,-1,-1,19,-1,-1,1,-1,17,-1,-1,-1,6,18,9,-1,-1,-1,-1,-1,2,16,6,-1,14,-1,-1,-1,-1,-1,9,-1,
|17,-1,10,3,16,-1,-1,1,-1,-1,12,0,-1,17,-1,4,-1,-1,-1,-1,17,2,12,9,16,-1,-1,-1,-1,-1,-1,-1,-1,-1,-1,20,-1,7,-1,1,-1,-1,13,-1,14,-1,5,-1,14,-1,-1,2,-1,19,-1,6,6,18,-1,-1,11,8,-1,20,-1,8,-1,1,-1,-1,-1,-1,-1,-1,5,-1,16,-1,-1,15,-1,15,-1,-1,6,-1,-1,8,7,-1,-1,9,-1,15,2,-1,-1,18,19,18,
|-1,-1,-1,8,-1,6,10,-1,-1,4,11,8,19,0,7,-1,7,17,0,-1,-1,-1,-1,0,9,17,-1,-1,-1,17,-1,4,4,-1,-1,-1,-1,-1,-1,-1,13,-1,19,6,14,-1,-1,0,-1,1,14,-1,-1,3,-1,20,16,-1,6,-1,3,0,17,-1,6,6,-1,-1,-1,2,19,18,12,15,-1,-1,6,19,-1,4,-1,-1,-1,2,-1,-1,-1,-1,19,-1,13,-1,-1,-1,-1,-1,9,-1,14,13,
|-1,-1,-1,-1,-1,0,-1,4,13,-1,10,19,-1,9,-1,-1,-1,4,15,6,-1,-1,-1,15,-1,2,-1,-1,-1,-1,-1,-1,7,-1,17,12,9,-1,-1,2,4,-1,12,18,14,-1,-1,-1,17,-1,-1,-1,10,18,12,-1,15,15,-1,-1,20,-1,17,-1,13,-1,-1,-1,-1,-1,-1,18,-1,2,-1,3,18,14,-1,-1,-1,1,20,-1,-1,-1,11,-1,-1,-1,2,12,6,19,0,11,-1,-1,13,-1,
|18,-1,-1,9,-1,-1,8,13,0,-1,-1,-1,20,-1,-1,-1,-1,20,10,16,-1,-1,-1,-1,-1,3,-1,2,-1,2,-1,-1,14,6,9,-1,-1,18,15,6,-1,9,13,18,9,19,8,-1,-1,1,-1,6,17,-1,-1,8,-1,6,-1,10,-1,13,3,-1,-1,14,6,9,19,-1,-1,-1,-1,16,17,-1,-1,-1,-1,-1,3,13,-1,-1,20,-1,-1,-1,-1,-1,-1,4,-1,-1,-1,-1,3,-1,-1,-1,
|-1,1,7,5,-1,6,19,0,-1,-1,-1,-1,-1,-1,-1,12,-1,-1,13,3,-1,2,3,8,-1,-1,-1,-1,7,-1,12,1,-1,10,-1,13,7,19,1,10,-1,-1,15,-1,-1,-1,-1,-1,16,0,-1,-1,4,16,-1,0,15,-1,20,-1,2,-1,-1,19,-1,-1,19,-1,-1,20,-1,8,0,4,-1,-1,7,-1,12,-1,16,-1,14,18,-1,1,-1,-1,-1,-1,11,13,-1,13,1,-1,20,-1,-1,10,
|-1,-1,-1,2,6,0,-1,18,-1,7,-1,-1,-1,-1,-1,-1,15,-1,-1,16,-1,-1,12,17,-1,-1,-1,-1,19,13,-1,1,-1,-1,18,10,-1,6,15,6,16,1,6,-1,-1,-1,-1,15,18,-1,0,14,9,-1,-1,-1,-1,-1,3,12,-1,12,-1,-1,-1,-1,2,13,-1,1,-1,-1,-1,-1,-1,5,0,-1,17,14,-1,-1,12,-1,8,-1,-1,-1,14,20,-1,-1,14,3,7,-1,9,-1,17,-1,
|-1,18,-1,-1,-1,-1,3,-1,-1,11,-1,11,-1,8,17,-1,-1,-1,-1,6,13,-1,11,6,-1,9,20,-1,17,20,10,15,-1,-1,11,16,8,-1,13,-1,19,-1,18,11,-1,-1,-1,7,9,-1,11,-1,2,-1,-1,2,-1,1,2,-1,4,7,13,19,5,14,-1,-1,3,-1,-1,-1,7,-1,6,-1,-1,-1,-1,-1,3,11,19,-1,-1,-1,15,-1,-1,-1,-1,-1,-1,-1,-1,14,3,-1,5,-1,
|-1,-1,-1,-1,15,-1,-1,18,12,-1,10,0,-1,11,20,-1,14,-1,-1,2,20,8,7,-1,-1,6,-1,3,20,-1,-1,-1,-1,-1,4,-1,7,-1,2,-1,-1,13,2,-1,-1,0,-1,3,-1,10,20,-1,-1,-1,18,-1,17,-1,-1,14,-1,0,-1,7,18,1,-1,-1,6,-1,-1,-1,-1,-1,2,18,4,13,-1,-1,18,-1,10,18,-1,17,-1,-1,20,-1,9,18,-1,-1,4,-1,1,-1,-1,-1,
|20,-1,14,-1,-1,5,10,-1,-1,-1,12,-1,-1,16,7,-1,-1,15,-1,20,12,-1,20,-1,12,20,6,-1,-1,-1,-1,-1,7,-1,-1,-1,13,17,-1,2,11,-1,2,-1,-1,13,9,12,-1,-1,13,-1,12,2,-1,-1,-1,-1,7,-1,12,2,-1,17,20,-1,13,-1,5,-1,-1,17,10,1,-1,6,15,-1,15,5,5,-1,3,-1,-1,1,18,12,19,-1,-1,9,5,-1,14,-1,-1,-1,-1,6,
|20,6,-1,5,-1,2,-1,-1,-1,9,10,-1,5,-1,2,-1,-1,2,-1,-1,16,-1,16,14,14,10,20,4,9,-1,-1,-1,-1,7,1,-1,20,2,-1,15,-1,-1,1,6,-1,-1,17,-1,-1,15,11,-1,16,13,-1,16,11,-1,-1,-1,9,19,-1,8,-1,6,-1,2,12,-1,14,4,-1,0,7,12,-1,-1,-1,16,4,-1,5,8,-1,20,-1,-1,-1,19,14,-1,-1,-1,-1,-1,-1,-1,-1,6,
|-1,-1,-1,8,5,-1,-1,-1,-1,-1,-1,-1,1,-1,-1,-1,-1,9,14,-1,5,10,-1,-1,-1,16,-1,4,4,-1,-1,14,2,0,-1,19,-1,-1,12,-1,2,5,-1,7,-1,-1,-1,-1,-1,3,-1,10,2,-1,17,10,8,-1,9,-1,0,-1,-1,-1,19,-1,-1,-1,-1,-1,18,-1,15,2,13,-1,-1,-1,-1,9,16,20,11,12,-1,-1,13,-1,16,-1,18,14,-1,-1,2,-1,-1,17,19,-1,
|-1,-1,5,-1,-1,-1,-1,-1,-1,-1,-1,-1,1,-1,0,-1,-1,3,6,1,-1,15,17,-1,-1,-1,14,-1,-1,14,20,6,18,-1,-1,-1,-1,2,-1,-1,3,-1,0,10,-1,0,-1,11,0,12,6,-1,14,-1,11,-1,-1,-1,20,8,-1,-1,-1,-1,5,-1,14,2,10,-1,12,-1,-1,16,12,-1,2,11,-1,-1,-1,-1,-1,-1,20,-1,11,-1,-1,-1,19,1,19,18,6,-1,-1,-1,-1,5,
|-1,-1,20,11,14,-1,20,15,-1,-1,-1,5,-1,-1,-1,11,-1,3,-1,18,13,0,-1,-1,-1,3,10,4,12,12,-1,-1,20,-1,-1,-1,16,7,16,8,-1,10,-1,3,13,-1,2,3,7,-1,-1,-1,-1,2,10,14,0,-1,-1,9,-1,-1,14,-1,-1,-1,-1,-1,10,15,-1,12,-1,13,-1,-1,-1,-1,3,-1,19,-1,2,-1,-1,1,-1,-1,-1,-1,16,-1,-1,12,20,-1,7,-1,20,11,
|-1,3,-1,8,18,-1,1,-1,-1,-1,9,-1,14,-1,-1,-1,10,-1,-1,15,-1,-1,-1,5,-1,17,-1,-1,-1,20,18,-1,-1,-1,-1,0,-1,-1,-1,18,-1,18,-1,0,-1,20,-1,-1,-1,-1,18,11,11,19,-1,-1,-1,-1,6,4,-1,-1,-1,-1,-1,-1,-1,-1,-1,-1,1,-1,2,10,12,-1,-1,12,-1,-1,-1,16,14,3,-1,-1,18,-1,-1,8,-1,-1,16,-1,-1,-1,-1,-1,-1,-1,
|-1,1,4,20,-1,15,19,18,-1,-1,4,15,18,1,-1,-1,-1,-1,10,19,-1,-1,15,1,7,-1,1,7,-1,12,16,1,13,-1,-1,17,-1,-1,19,11,-1,2,-1,-1,7,15,-1,14,-1,-1,1,6,3,10,20,-1,16,-1,-1,-1,17,17,7,5,-1,-1,-1,4,4,-1,6,-1,-1,-1,10,19,5,2,6,19,-1,2,1,-1,11,1,8,13,5,5,-1,3,-1,12,6,1,14,16,0,-1,
|]
;